Route 1: 28 196 142 188 136 171 63 99 94 162 70 46 187 60 30 108 133 16 61 72 122 24 92 49 160 117 82 17 7 170 165 58 66 68 52 105
Route 2: 173 178 200 41 35 107 116 65 183 3 189 15 155 175 9 19 62 89 179 54 147 186 146 91 106 197 44 195 156 79 4 11 23
Route 3: 167 40 39 119 38 166 76 78 102 98 8 22 150 134 177 191 43 151 97 31 69 87 163 181 172 75 168 154 21 51 14 83 159 36
Route 4: 104 174 164 198 64 137 57 18 115 140 26 169 131 113 192 84 53 37 27 185 180 55 85 124 123 121 111 157 34 135 1 176 114 129
Route 5: 132 67 10 153 59 93 118 86 77 182 45 33 12 13 50 32 73 96 139 103 141 74 100 81 130 112 120 95 125 109 149 152
Route 6: 110 184 148 29 6 42 144 138 2 143 128 126 90 25 145 48 71 127 5 193 20 194 190 80 158 101 161 88
Route 7: 47 199 56
Vehicles: 7
Distance: 2584.59
